c description: Subset cardinality formula for Random regular bipartite with (11,11) vertices and left degree 4 + 1 random edges
c generator: CNFgen (0.9.0)
c copyright: (C) 2012-2020 Massimo Lauria <massimo.lauria@uniroma1.it>
c url: https://massimolauria.net/cnfgen
c command line: cnfgen subsetcard 11
c
p cnf 45 100
1 2 3 0
1 2 4 0
1 2 5 0
1 3 4 0
1 3 5 0
1 4 5 0
2 3 4 0
2 3 5 0
2 4 5 0
3 4 5 0
6 7 8 0
6 7 9 0
6 8 9 0
7 8 9 0
10 11 12 0
10 11 13 0
10 12 13 0
11 12 13 0
14 15 16 0
14 15 17 0
14 16 17 0
15 16 17 0
18 19 20 0
18 19 21 0
18 20 21 0
19 20 21 0
22 23 24 0
22 23 25 0
22 24 25 0
23 24 25 0
26 27 28 0
26 27 29 0
26 28 29 0
27 28 29 0
30 31 32 0
30 31 33 0
30 32 33 0
31 32 33 0
34 35 36 0
34 35 37 0
34 36 37 0
35 36 37 0
38 39 40 0
38 39 41 0
38 40 41 0
39 40 41 0
42 43 44 0
42 43 45 0
42 44 45 0
43 44 45 0
-1 -18 -22 0
-1 -18 -34 0
-1 -22 -34 0
-18 -22 -34 0
-6 -26 -30 0
-6 -26 -38 0
-6 -30 -38 0
-26 -30 -38 0
-2 -23 -35 0
-2 -23 -39 0
-2 -35 -39 0
-23 -35 -39 0
-14 -27 -31 0
-14 -27 -42 0
-14 -31 -42 0
-27 -31 -42 0
-7 -10 -19 0
-7 -10 -40 0
-7 -19 -40 0
-10 -19 -40 0
-3 -8 -20 0
-3 -8 -32 0
-3 -8 -41 0
-3 -20 -32 0
-3 -20 -41 0
-3 -32 -41 0
-8 -20 -32 0
-8 -20 -41 0
-8 -32 -41 0
-20 -32 -41 0
-11 -15 -36 0
-11 -15 -43 0
-11 -36 -43 0
-15 -36 -43 0
-4 -24 -28 0
-4 -24 -44 0
-4 -28 -44 0
-24 -28 -44 0
-5 -12 -16 0
-5 -12 -25 0
-5 -16 -25 0
-12 -16 -25 0
-9 -21 -29 0
-9 -21 -37 0
-9 -29 -37 0
-21 -29 -37 0
-13 -17 -33 0
-13 -17 -45 0
-13 -33 -45 0
-17 -33 -45 0
